Route #1: 19 15 24 16 42 33 8
Route #2: 3 44 25 18 35 12 11
Route #3: 5 32 22 7 10 39 36
Route #4: 38 37 2 30 4 13
Route #5: 23
Route #6: 9 17 45 6 43 26 14
Route #7: 28 41 20 27 1 40 34 31 29 21
Cost 914
Time 0.065735
